experiments/sat_smt/run/sat-r+/results/adam.res
solved=true
solvingTime=29.157329559326171875
nActions=12