experiments/sat_smt/run/sat-r+/results/adam.out
Timesteps: 1
s UNSATISFIABLE
real 0.11
user 0.01
sys 0.00
Timesteps: 2
s UNSATISFIABLE
real 0.14
user 0.03
sys 0.00
Timesteps: 3
s UNSATISFIABLE
real 0.19
user 0.05
sys 0.00
Timesteps: 4
s UNSATISFIABLE
real 0.19
user 0.11
sys 0.00
Timesteps: 5
s UNSATISFIABLE
real 0.32
user 0.21
sys 0.01
Timesteps: 6
s UNSATISFIABLE
real 0.69
user 0.58
sys 0.01
Timesteps: 7
s UNSATISFIABLE
real 1.71
user 1.52
sys 0.02
Timesteps: 8
s UNSATISFIABLE
real 2.64
user 2.47
sys 0.02
Timesteps: 9
s UNSATISFIABLE
real 3.92
user 3.72
sys 0.01
Timesteps: 10
s UNSATISFIABLE
real 6.16
user 5.88
sys 0.03
Timesteps: 11
s UNSATISFIABLE
real 6.74
user 6.49
sys 0.03
Timesteps: 12
s SATISFIABLE
real 6.46
user 5.92
sys 0.03
